
Gurobi 6.5.0 (linux64) logging started Tue Apr 12 11:05:03 2016

Read LP format model from file rebalance.lp
Reading time = 0.00 seconds
(null): 10 rows, 20 columns, 200 nonzeros
Changed value of parameter Heuristics to 1.0
   Prev: 0.05  Min: 0.0  Max: 1.0  Default: 0.05
Parameter Cuts unchanged
   Value: -1  Min: -1  Max: 3  Default: -1
Changed value of parameter TimeLimit to 60000.0
   Prev: 1e+100  Min: 0.0  Max: 1e+100  Default: 1e+100
Optimize a model with 10 rows, 20 columns and 200 nonzeros
Coefficient statistics:
  Matrix range    [1e-01, 9e+01]
  Objective range [1e+00, 1e+02]
  Bounds range    [1e+01, 1e+10]
  RHS range       [4e+02, 3e+03]
Presolve removed 1 rows and 1 columns
Presolve time: 0.00s
Presolved: 9 rows, 19 columns, 171 nonzeros

Iteration    Objective       Primal Inf.    Dual Inf.      Time
       0    0.0000000e+00   2.802219e+02   0.000000e+00      0s
       9    8.5535300e+03   0.000000e+00   0.000000e+00      0s

Solved in 9 iterations and 0.00 seconds
Optimal objective  8.553530000e+03
